100
50
13 20
630 12
914 17
155 21
708 23
767 21
408 24
108 17
322 18
208 19
89 11
794 13
966 5
405 16
51 7
236 19
578 9
45 23
651 22
785 18
970 9
922 18
536 13
117 11
65 1
50 8
455 5
858 24
365 10
569 20
86 17
460 2
374 5
973 21
897 18
860 18
267 14
672 8
8 5
942 20
805 6
185 12
934 9
459 18
281 22
427 7
643 19
152 11
314 6
557 15
259 4
861 19
677 4
225 17
542 11
375 14
372 16
309 23
550 11
590 24
868 22
356 17
244 15
464 13
759 15
582 15
179 25
828 1
658 22
196 24
691 24
695 24
119 8
293 3
391 13
35 18
189 25
444 21
240 25
339 19
979 15
239 17
392 8
288 19
185 16
73 22
839 19
743 7
615 24
881 2
146 9
833 12
595 1
346 7
279 8
977 8
536 19
593 16
770 1
794 23
